NAME: Taillard-75D
BEST_KNOWN: 1365.42
COMMENT: 1365.420000
DIMENSION: 76
CAPACITY: 1699
EDGE_WEIGHT_FORMAT: FUNCTION
EDGE_WEIGHT_TYPE: EXACT_2D
NODE_COORD_SECTION
1 0.00000 0.00000
2 87.00000 -18.00000
3 71.00000 -19.00000
4 81.00000 -11.00000
5 80.00000 -17.00000
6 74.00000 -16.00000
7 75.00000 -9.00000
8 76.00000 -6.00000
9 86.00000 -11.00000
10 85.00000 -19.00000
11 83.00000 -19.00000
12 70.00000 -10.00000
13 48.00000 21.00000
14 23.00000 33.00000
15 35.00000 36.00000
16 38.00000 42.00000
17 22.00000 26.00000
18 51.00000 21.00000
19 30.00000 39.00000
20 30.00000 26.00000
21 29.00000 23.00000
22 27.00000 20.00000
23 36.00000 23.00000
24 28.00000 20.00000
25 45.00000 28.00000
26 -61.00000 38.00000
27 -54.00000 50.00000
28 -56.00000 36.00000
29 -57.00000 26.00000
30 -61.00000 40.00000
31 -41.00000 39.00000
32 -61.00000 30.00000
33 -45.00000 46.00000
34 -53.00000 62.00000
35 -34.00000 37.00000
36 -47.00000 33.00000
37 -52.00000 61.00000
38 -33.00000 34.00000
39 -35.00000 62.00000
40 -71.00000 45.00000
41 -22.00000 -10.00000
42 -29.00000 -2.00000
43 -29.00000 3.00000
44 -30.00000 3.00000
45 -33.00000 -11.00000
46 -31.00000 1.00000
47 -31.00000 -10.00000
48 -22.00000 -9.00000
49 -25.00000 -4.00000
50 -32.00000 -12.00000
51 -30.00000 -5.00000
52 -34.00000 2.00000
53 -31.00000 -12.00000
54 -31.00000 -10.00000
55 -27.00000 1.00000
56 -30.00000 -8.00000
57 -31.00000 -6.00000
58 -23.00000 -1.00000
59 -21.00000 -3.00000
60 -33.00000 1.00000
61 59.00000 -61.00000
62 73.00000 -52.00000
63 72.00000 -61.00000
64 76.00000 -63.00000
65 59.00000 -63.00000
66 62.00000 -63.00000
67 59.00000 -54.00000
68 70.00000 -55.00000
69 62.00000 -59.00000
70 60.00000 -62.00000
71 56.00000 19.00000
72 47.00000 15.00000
73 49.00000 12.00000
74 58.00000 9.00000
75 51.00000 13.00000
76 57.00000 19.00000
DEMAND_SECTION
1 0
2 643
3 622
4 727
5 50
6 235
7 30
8 5
9 43
10 398
11 81
12 14
13 171
14 209
15 20
16 13
17 93
18 16
19 3
20 391
21 52
22 905
23 56
24 203
25 87
26 1004
27 114
28 527
29 4
30 28
31 94
32 8
33 139
34 41
35 7
36 490
37 3
38 75
39 45
40 3
41 410
42 44
43 678
44 24
45 10
46 12
47 268
48 7
49 51
50 448
51 459
52 4
53 20
54 413
55 671
56 195
57 16
58 683
59 4
60 43
61 45
62 62
63 14
64 76
65 101
66 846
67 157
68 3
69 13
70 397
71 23
72 87
73 6
74 3
75 3
76 230
DEPOT_SECTION
1
-1
EOF
